
Gurobi 6.5.2 (win64) logging started 07/22/16 21:13:48


Gurobi 6.5.2 (win64) logging started 07/22/16 21:13:48

Optimize a model with 1318 rows, 589 columns and 3679 nonzeros
Coefficient statistics:
  Matrix range    [6e-08, 1e+03]
  Objective range [1e+00, 1e+00]
  Bounds range    [1e+00, 1e+00]
  RHS range       [6e-06, 1e+03]
Presolve removed 1103 rows and 368 columns
Presolve time: 0.00s
Presolved: 215 rows, 221 columns, 972 nonzeros
Variable types: 221 continuous, 0 integer (0 binary)

Root relaxation: objective 1.590641e+02, 264 iterations, 0.00 seconds

    Nodes    |    Current Node    |     Objective Bounds      |     Work
 Expl Unexpl |  Obj  Depth IntInf | Incumbent    BestBd   Gap | It/Node Time

*    0     0               0     159.0641433  159.06414  0.00%     -    0s

Explored 0 nodes (264 simplex iterations) in 0.02 seconds
Thread count was 8 (of 8 available processors)

Optimal solution found (tolerance 1.00e-04)
Best objective 1.590641433336e+02, best bound 1.590641433336e+02, gap 0.0%

Wrote requested result file 'H1\instance10\\Results10EC_Sol3.lp'

